<instance format="XCSP3" type="CSP">
  <variables>
    <array id="b" size="[4]"> 1..3 </array>
  </variables>
  <constraints>
    <group>
      <intension> or(ne(%0,%1),ne(%0,%2),ne(%1,%2)) </intension>
      <args> b[0] b[0] b[0] </args>
      <args> b[0..1] b[1] </args>
      <args> b[0] b[2] b[2] </args>
      <args> b[0] b[3] b[3] </args>
      <args> b[1] b[0..1] </args>
      <args> b[1] b[1..2] </args>
      <args> b[1..3] </args>
      <args> b[2] b[0] b[2] </args>
      <args> b[2] b[1] b[3] </args>
      <args> b[3] b[0] b[3] </args>
    </group>
  </constraints>
</instance>
